Maximize
    230000 x1 + 300000 x2 + 420000 x3

Subject To
    R1: 3500000 x1 + 5000000 x2 + 6700000 x3 <= 150000000
    R2: x1 + x2 + x3 <= 30
    R3: x1 + 1.33333333 x2 + 1.66666666 x3 <= 40

Bounds
    x1 >= 0
    x2 >= 0
    x3 >= 0

End
